(set-option :smt.arith.solver 2)
(set-option :smt.phase_selection 1)
(set-option :smt.random_seed 4)
(set-option :smt.arith.random_initial_value true)
(set-option :rewriter.arith_lhs true)
(set-option :smt.str.fixed_length_naive_cex false)
(declare-fun x () string)
(declare-fun y () string)
(assert (distinct (str.replace (str.replace x y x) x y) x))
(check-sat)